certificates/rado_a13_c173_N34.cnf
c Rad2 upper bound instance: x1 + 13*x2 - x3 = 173, interval [1,34]
p cnf 34 176
1 10 14 0
-1 -10 -14 0
1 15 23 0
-1 -15 -23 0
2 11 14 0
-2 -11 -14 0
2 15 24 0
-2 -15 -24 0
3 12 14 0
-3 -12 -14 0
3 15 25 0
-3 -15 -25 0
4 13 14 0
-4 -13 -14 0
4 15 26 0
-4 -15 -26 0
1 5 13 0
-1 -5 -13 0
5 14 0
-5 -14 0
5 15 27 0
-5 -15 -27 0
2 6 13 0
-2 -6 -13 0
6 14 15 0
-6 -14 -15 0
6 15 28 0
-6 -15 -28 0
3 7 13 0
-3 -7 -13 0
7 14 16 0
-7 -14 -16 0
7 15 29 0
-7 -15 -29 0
4 8 13 0
-4 -8 -13 0
8 14 17 0
-8 -14 -17 0
8 15 30 0
-8 -15 -30 0
5 9 13 0
-5 -9 -13 0
9 14 18 0
-9 -14 -18 0
9 15 31 0
-9 -15 -31 0
6 10 13 0
-6 -10 -13 0
10 14 19 0
-10 -14 -19 0
10 15 32 0
-10 -15 -32 0
7 11 13 0
-7 -11 -13 0
11 14 20 0
-11 -14 -20 0
11 15 33 0
-11 -15 -33 0
8 12 13 0
-8 -12 -13 0
12 14 21 0
-12 -14 -21 0
12 15 34 0
-12 -15 -34 0
9 13 0
-9 -13 0
13 14 22 0
-13 -14 -22 0
10 13 14 0
-10 -13 -14 0
14 23 0
-14 -23 0
11 13 15 0
-11 -13 -15 0
14 15 24 0
-14 -15 -24 0
12 13 16 0
-12 -13 -16 0
14 16 25 0
-14 -16 -25 0
13 17 0
-13 -17 0
14 17 26 0
-14 -17 -26 0
1 12 18 0
-1 -12 -18 0
13 14 18 0
-13 -14 -18 0
14 18 27 0
-14 -18 -27 0
2 12 19 0
-2 -12 -19 0
13 15 19 0
-13 -15 -19 0
14 19 28 0
-14 -19 -28 0
3 12 20 0
-3 -12 -20 0
13 16 20 0
-13 -16 -20 0
14 20 29 0
-14 -20 -29 0
4 12 21 0
-4 -12 -21 0
13 17 21 0
-13 -17 -21 0
14 21 30 0
-14 -21 -30 0
5 12 22 0
-5 -12 -22 0
13 18 22 0
-13 -18 -22 0
14 22 31 0
-14 -22 -31 0
6 12 23 0
-6 -12 -23 0
13 19 23 0
-13 -19 -23 0
14 23 32 0
-14 -23 -32 0
7 12 24 0
-7 -12 -24 0
13 20 24 0
-13 -20 -24 0
14 24 33 0
-14 -24 -33 0
8 12 25 0
-8 -12 -25 0
13 21 25 0
-13 -21 -25 0
14 25 34 0
-14 -25 -34 0
9 12 26 0
-9 -12 -26 0
13 22 26 0
-13 -22 -26 0
10 12 27 0
-10 -12 -27 0
13 23 27 0
-13 -23 -27 0
11 12 28 0
-11 -12 -28 0
13 24 28 0
-13 -24 -28 0
12 29 0
-12 -29 0
13 25 29 0
-13 -25 -29 0
12 13 30 0
-12 -13 -30 0
13 26 30 0
-13 -26 -30 0
1 11 31 0
-1 -11 -31 0
12 14 31 0
-12 -14 -31 0
13 27 31 0
-13 -27 -31 0
2 11 32 0
-2 -11 -32 0
12 15 32 0
-12 -15 -32 0
13 28 32 0
-13 -28 -32 0
3 11 33 0
-3 -11 -33 0
12 16 33 0
-12 -16 -33 0
13 29 33 0
-13 -29 -33 0
4 11 34 0
-4 -11 -34 0
12 17 34 0
-12 -17 -34 0
13 30 34 0
-13 -30 -34 0
