certificates/rado_a13_c173_N34.drat
13 -31 -33 -34 0
-31 -33 -34 0
d 13 -31 -33 -34 0
-13 -33 -34 0
-33 -34 0
d -31 -33 -34 0
-17 31 -34 0
31 -34 0
d -17 31 -34 0
12 27 -13 33 0
17 -34 0
-34 0
13 -31 0
-31 0
17 0
-13 0
9 0
30 0
27 0
-12 0
8 0
16 0
29 0
14 0
15 0
0
